# Solution for model 2026-03-24_21-37-40
# Objective value = 0
start_0 0
start_1 0
start_2 0
hold_0_1 0
hold_0_2 0
hold_0_3 1
hold_0_4 0
hold_0_5 0
hold_0_6 0
hold_0_7 0
hold_0_8 0
hold_0_9 0
hold_0_10 0
hold_0_11 0
hold_0_12 0
hold_1_1 0
hold_1_2 0
hold_1_3 1
hold_1_4 0
hold_1_5 0
hold_1_6 0
hold_1_7 0
hold_1_8 0
hold_1_9 0
hold_2_1 0
hold_2_2 1
hold_2_3 0
hold_2_4 0
hold_2_5 0
hold_2_6 0
hold_2_7 0
hold_2_8 0
hold_2_9 0
flow_source_0 0
flow_source_1 0
flow_source_2 0
flow_0_sink 0
flow_1_sink 0
flow_2_sink 0
flow_0_1 0
flow_1_0 0
flow_0_2 0
flow_2_0 0
flow_1_2 0
flow_2_1 0
switch_source_0 0
switch_source_1 0
switch_source_2 0
switch_0_sink 0
switch_1_sink 0
switch_2_sink 0
switch_0_1 0
switch_1_0 0
switch_0_2 0
switch_2_0 0
switch_1_2 0
switch_2_1 0
